DATASET = "thpack7";
INSTANCE = "017";

WIDTH = 233;
HEIGHT = 220;
LENGTH = 587;

NO_OF_SHAPES = 20;
size = [|
  72,49,35 |
  75,66,47 |
  78,30,22 |
  119,79,79 |
  76,65,62 |
  119,81,65 |
  91,77,36 |
  113,89,27 |
  98,59,44 |
  76,55,43 |
  58,51,31 |
  94,40,25 |
  89,66,43 |
  119,55,50 |
  70,43,34 |
  76,71,56 |
  80,58,40 |
  79,57,46 |
  70,68,61 |
  93,46,39 |
|];

verticality = [|
  0,1,1 |
  1,1,1 |
  0,1,1 |
  1,1,1 |
  1,1,1 |
  1,1,1 |
  0,0,1 |
  0,0,1 |
  0,1,1 |
  1,1,1 |
  1,1,1 |
  0,1,1 |
  0,1,1 |
  0,1,1 |
  0,1,1 |
  1,1,1 |
  0,1,1 |
  1,1,1 |
  1,1,1 |
  0,1,1 |
|];

box_count = [
  7,
  7,
  9,
  6,
  7,
  4,
  7,
  7,
  5,
  6,
  5,
  10,
  5,
  6,
  6,
  6,
  7,
  3,
  5,
  7,
];
